14
1 7
2 4
3 2
4 2
5 6
6 8
7 1
8 2
9 8
10 3
11 2
12 4
13 7
48
0 1 46
1 0 46
0 2 53
2 0 53
0 3 92
3 0 92
0 4 80
4 0 80
0 5 49
5 0 49
0 6 89
6 0 89
0 7 40
7 0 40
0 8 17
8 0 17
0 9 93
9 0 93
0 10 95
10 0 95
0 11 45
11 0 45
0 12 69
12 0 69
0 13 58
13 0 58
1 5 66
1 8 15
2 4 91
2 9 97
3 5 89
3 7 85
3 10 65
4 5 51
4 11 45
4 12 55
5 6 87
5 7 2
5 12 42
6 7 7
6 8 72
7 13 45
8 9 84
8 12 70
9 10 95
10 11 52
10 12 2
11 13 42
